results/x-long/X-n120-k6.vrp_seed-44.out
13332	1090
