results/x-long/X-n120-k6.vrp_seed-44.vrp.sol
Route #1: 98 13 41 85 89 51 63 104 105 101 47 5 26 117 108 66 46 75 17 103 99
Route #2: 88 38 29 12 49 2 43 76 113 64 82 109 42 39 70 55 93 16 84 119 61
Route #3: 78 8 53 81 69 68 60 95 4 22 59 100 77 57 37 24 1 56 11 27 34
Route #4: 20 54 62 87 72 102 111 40 6 92 35 90 114 3 45 112 71 96 107 116
Route #5: 23 14 58 83 15 9 44 18 28 19 97 7 106 110 74 65 86 48 115 36 33
Route #6: 10 94 80 32 91 21 79 118 30 67 25 73 31 52 50
Cost 13332.000000